NAME: rbg050b.sop
TYPE: SOP
COMMENT: Stacker crane application (Norbert Ascheuer)
DIMENSION: 52
EDGE_WEIGHT_TYPE: EXPLICIT
EDGE_WEIGHT_FORMAT: FULL_MATRIX 
EDGE_WEIGHT_SECTION
52
    0    0    0    0    0    0    0    0    0    0    0    0    0    0    0    0    0    0    0    0    0    0    0    0    0    0    0    0    0    0    0    0    0    0    0    0    0    0    0    0    0    0    0    0    0    0    0    0    0    0    0 1000000
   -1    0   11   27   18   18   18   18   12    9   20   16   12   18   11   12   21   23   12   12   15   12   10   12   20   11   10   16    5   18   20   23   18   14   10   15   18   18   24   11   27   27   12   18   15   16   16   18   23   11   20    0
   -1   10    0   27   18   18   18   18   12    9   20   16   12   18   11   12   21   23   12   12   15   12   10   12   20   11   10   16    5   18   20   23   18   14   10   15   18   18   24   11   27   27   12   18   15   16   16   18   23   11   20    0
   -1   27   28    0   24   31   31   31   24   27   23   31   25   23   25   25   21   16   28   24   31   25   26   24   23   25   26   31   27   23   23   16   31   30   26   31   31   31   12   27    6   10   29   31   24   23   31   31   16   25   23    0
   -1   -1   -1   -1    0   33   33   33   25   27   23   31   25   23   26   25   23   18   29   25   31   25   27   25   23   26   27   31   27   23   23   18   33   31   27   31   33   33   14   27   10    0   30   33   24   24   31   31   18   26   23    0
   -1   -1   -1   -1   19    0   14   14   16   12   23   12   15   23   14   15   23   24    0   16   12   15   12   16   23   14   12   12   12   23   23   24   14   11   12   15   14   14   26   12   28   29   10   14   20   21   12   19   24   14   23    0
   -1   -1   -1   -1   -1   27    0   27   20   23   12   27   21   14   23   21   12    0   24   20   26   21   23   20   12   23   23   27   23   14   12    0   27   25   23   26   27   27   12   23   16   18   25   27   16   15   27   27    0   23   12    0
   -1   -1   -1   -1   -1   -1   31    0   24   25   20   30   24   21   24   24   18   14   27   24   29   24   25   24   20   24   25   30   25   21   20   14   31   28   25   29   31   31   11   25   11   12   28   31   23   23   30   30   14   24   20    0
   -1   -1   -1    0   24   33   33   33    0   27   23   31   25   23   26   25   23   18   29   25   31   25   27   25   23   26   27   31   27   23   23   18   33   31   27   31   33   33   14   27   10    0   30   33   24   24   31   31   18   26   23    0
   -1   -1   -1   27   18   18   18   18   12    0   20   16   12   18   11   12   21   23   12   12   15   12   10   12   20   11   10   16    5   18   20   23   18   14   10   15   18   18   24   11   27   27   12   18   15   16   16   18   23   11   20    0
   -1   -1   -1   23   16   25   25   25   14   20    0   24   15   10   16   15   10   12   23   14   24   15   18   14    9   16   18   24   20   10    8   12   25   24   18   24   25   25   16   20   23   23   23   25   12   11   24   24   12   16    2    0
   -1   -1   -1   -1   23    0    0    0   23   18   25    0   23   24   21   23   25   27   14   23   11   23   20   23   25   21   20   10   18   24   25   27    0   12   20   14   13    0   29   18   31   33   12    0   24   24   10   18   27   21   25    0
   -1   -1   -1   -1   19   23   23   23   10   12   15   21    0   14   10    5   16   21   15   10   20   12   11   10   15   10   11   21   12   14   15   21   23   18   11   20   23   23   23   12   25   25   16   23   12   12   21   21   21   10   15    0
   -1   -1   -1   -1   18   24   24   24   12   18   10   24   14    0   15   14   11   14   23   12   24   14   16   12   11   15   16   24   18    4   10   14   24   23   16   24   24   24   18   18   23   23   23   24   11   10   24   24   14   15   10    0
   -1   -1   -1   -1   18   21   21   21   11   11   16   20   11   15    0   10   18   23   14   11   18   11   10   11   16    5   10   20   11   15   16   23   21   16   10   18   21   21   24   11   25   26   15   21   12   14   20   20   23    4   16    0
   -1   -1   -1   -1   18   23   23   23   10   12   15   21   11   14   10    0   16   21   15   10   20   11   11   10   15   10   11   21   12   14   15   21   23   18   11   20   23   23   23   12   25   25   16   23   12   12   21   21   21   10   15    0
   -1   -1   -1   -1   23    0    0    0   23   18   25   10   23   24   21   23    0   27   14   23   11   23   20   23   25   21   20   10   18   24   25   27    0   12   20   14   13    0   29   18   31   33   12    0   24   24   10   18   27   21   25    0
   -1   -1   -1   -1   20   28   28   28   21   24   14   27   23   15   23   23   12    0   25   21   27   23   23   21   14   23   23   27   24   15   14   10   28   26   23   27   28   28   11   24   15   16   25   28   18   16   27   27   10   23   14    0
   -1   -1   -1   -1   18   14   14   14   16   12   23   12   15   23   14   15   23   24    0   16   12   15   12   16   23   14   12   12   12   23   23   24   14   11   12   12   14   14   26   12   28   29   10   14   20   21   12   13   24   14   23    0
   -1   -1   -1   -1   18   15   15   15   15   11   23   14   14   21   12   14   23   24   10    0   12   14   12   15   23   12   12   14   11   21   23   24   15   12   12   13   15   15   25   11   28   28   11   15   18   20   14   18   24   12   23    0
   -1   -1   -1   -1   23    0    0    0   23   18   25   10   23   24   21   23   25   27   14   23    0   23   20   23   25   21   20   10   18   24   25   27    0   12   20   14   13    0   29   18   31   33   12    0   24   24   10   18   27   21   25    0
   -1   -1   -1   -1   19   23   23   23   10   12   15   21   12   14   10    5   16   21   15   10   20    0   11   10   15   10   11   21   12   14   15   21   23   18   11   20   23   23   23   12   25   25   16   23   12   12   21   21   21   10   15    0
   -1   -1   -1   -1   23    0    0    0   23   18   25   10   23   24   21   23   25   27   14   23   11   23    0   23   25   21   20   10   18   24   25   27    0   12   20   14   13    0   29   18   31   33   12    0   24   24   10   18   27   21   25    0
   -1   -1   -1   -1   19   23   23   23   10   12   15   21   12   14   10    5   16   21   15   10   20   12   11    0   15   10   11   21   12   14   15   21   23   18   11   20   23   23   23   12   25   25   16   23   12   12   21   21   21   10   15    0
   -1   -1   -1   -1   18   25   25   25   14   20    9   24   15   10   16   15   10   12   23   14   24   15   18   14    0   16   18   24   20   10   10   12   25   24   18   24   25   25   16   20   23   23   23   25   12   11   24   24   12   16    4    0
   -1   -1   -1   -1   18   23   23   23   10   12   15   21   11   14   10    4   16   21   15   10   20   11   11   10   15    0   11   21   12   14   15   21   23   18   11   20   23   23   23   12   25   25   16   23   12   12   21   21   21   10   15    0
   -1   -1   -1   -1   19   23   23   23   10   12   15   21   12   14   10    5   16   21   15   10   20   12   11   10   15   10    0   21   12   14   15   21   23   18   11   20   23   23   23   12   25   25   16   23   12   12   21   21   21   10   15    0
   -1   -1   -1   -1   23    0    0    0   23   18   25   10   23   24   21   23   25   27   14   23   11   23   20   23   25   21   20    0   18   24   25   27    0   12   20   14   13    0   29   18   31   33   12    0   24   24   10   18   27   21   25    0
   -1   -1   -1   -1   19   15   15   15   15   11   23   14   14   21   12   14   23   24   10   15   12   14   12   15   23   12   12   14    0   21   23   24   15   12   12   15   15   15   25   12   28   28   11   15   18   20   14   19   24   12   23    0
   -1   -1   -1   -1   19   24   24   24   12   18   10   24   14    6   15   14   11   14   23   12   24   14   16   12   12   15   16   24   18    0   11   14   24   23   16   24   24   24   18   18   23   23   23   24   11   10   24   24   14   15   10    0
   -1   -1   -1   -1   19   25   25   25   14   20   10   24   15   10   16   15   10   12   23   14   24   15   18   14   12   16   18   24   20   10    0   12   25   24   18   24   25   25   16   20   23   23   23   25   12   11   24   24   12   16    5    0
   -1   -1   -1   -1   23    0    0    0   23   18   25   10   23   24   21   23   25   27   14   23   11   23   20   23   25   21   20   10   18   24   25    0    0   12   20   14   13    0   29   18   31   33   12    0   24   24   10   18   27   21   25    0
   -1   -1   -1   -1   -1   -1   -1   -1   -1   -1   -1   -1   -1   -1   -1   -1   -1   -1   -1   -1   -1   -1   -1   -1   -1   -1   -1   -1   -1   -1   -1   24    0   12   12   12   15   15   25   11   28   28   11   15   18   20   14   16   24   12   23    0
   -1   -1   -1   -1   -1   -1   -1   -1   -1   -1   -1   -1   -1   -1   -1   -1   -1   -1   -1   -1   -1   -1   -1   23   25   21   20   10   18   24   25   27    0    0   20   14   13    0   29   18   31   33   12    0   24   24   10   18   27   21   25    0
   -1   -1   -1   -1   -1   -1   -1   -1   -1   -1   -1   -1   -1   -1   -1   -1   -1   -1   -1   -1   -1   -1   -1   -1   -1   -1   -1   -1   12   14   15   21   23   18    0   20   23   23   23   12   25   25   16   23   12   12   21   21   21   10   15    0
   -1   -1   -1   -1   23   10   10   10   23   16   24    0   21   24   20   21   25   27   12   23   10   21   18   23   24   20   18    0   16   24   24   27   10   11   18    0   14   10   28   16   31   31   12   10   23   24    0   19   27   20   24    0
   -1   -1   -1   -1   19   25   25   25   15   21   10   25   16   11   18   16    0   12   23   15   24   16   20   15   12   18   20   25   21   11   11   12   25   24   20   24    0   25   15   21   21   23   24   25   12   12   25   25   12   18   10    0
   -1   -1   -1   -1   -1   -1   -1   -1   -1   -1   -1   -1   -1   -1   -1   -1   -1   -1   -1   -1   -1   -1   -1   -1   -1   -1   -1   -1   -1   -1   -1   -1   24   -1   16   -1   24    0   18   18   23   23   23   24   11   10   24   24   14   15   10    0
   -1   -1   -1   -1   -1   -1   -1   -1   -1   -1   -1   -1   -1   -1   -1   -1   -1   -1   -1   -1   -1   -1   -1   -1   -1   -1   -1   -1   -1   -1   -1   -1    0   -1   20   -1   13    0    0   18   31   33   12    0   24   24   10   18   27   21   25    0
   -1   -1   -1   -1   -1   -1   -1   -1   -1   -1   -1   -1   -1   -1   -1   -1   -1   -1   -1   -1   -1   -1   -1   -1   -1   -1   -1   -1   -1   -1   -1   -1   23   -1   11   -1   -1   23   23    0   25   25   16   23   12   12   21   21   21   10   15    0
   -1   -1   -1   -1   -1   -1   -1   -1   -1   -1   -1   -1   -1   -1   -1   -1   -1   -1   -1   -1   -1   -1   -1   -1   -1   -1   -1   -1   -1   -1   -1   -1    0   -1   -1   -1   -1    0   29   18    0   33   12    0   24   24   10   18   27   21   25    0
   -1   -1   -1   -1   -1   -1   -1   -1   -1   -1   -1   -1   -1   -1   -1   -1   -1   -1   -1   -1   -1   -1   -1   -1   -1   -1   -1   -1   -1   -1   -1   -1   33   -1   -1   -1   -1   33   15   27   15    0   30   33   24   24   31   31   18   26   23    0
   -1   -1   -1   -1   -1   -1   -1   -1   -1   -1   -1   -1   -1   -1   -1   -1   -1   -1   -1   -1   -1   -1   -1   -1   -1   -1   -1   -1   -1   -1   -1   -1   33   -1   -1   -1   -1   33   14   27   10    0    0   33   24   24   31   31   18   26   23    0
   -1   -1   -1   -1   -1   -1   -1   -1   -1   -1   -1   -1   -1   -1   -1   -1   -1   -1   -1   -1   -1   -1   -1   -1   -1   -1   -1   -1   -1   -1   -1   -1   -1   -1   -1   -1   -1   25   16   20   23   23   23    0   12   11   24   24   12   16    0    0
   -1   -1   -1   -1   -1   -1   -1   -1   -1   -1   -1   -1   -1   -1   -1   -1   -1   -1   -1   -1   -1   -1   -1   -1   -1   -1   -1   -1   -1   -1   -1   -1   24   -1   -1   -1   -1   24   21   15   24   24   21   24    0   10   23   23   16   12   12    0
   -1   -1   -1   -1   -1   -1   -1   -1   -1   -1   -1   -1   -1   -1   -1   -1   -1   -1   -1   -1   -1   -1   -1   -1   -1   -1   -1   -1   -1   -1   -1   -1   24   -1   -1   -1   -1   24   21   15   24   24   21   24    0    0   23   23   16   12   12    0
   -1   -1   -1   -1   -1   -1   -1   -1   -1   -1   -1   -1   -1   -1   -1   -1   -1   -1   -1   -1   -1   -1   -1   -1   -1   -1   -1   -1   -1   -1   -1   -1   -1   -1   -1   -1   -1   12   27   14   30   31   10   12   23   23    0   13   25   16   24    0
   -1   -1   -1   -1   -1   -1   -1   -1   -1   -1   -1   -1   -1   -1   -1   -1   -1   -1   -1   -1   -1   -1   -1   -1   -1   -1   -1   -1   -1   -1   -1   -1   -1   -1   -1   -1   -1   10   28   16   31   31   12   10   23   24    0    0   27   20   24    0
   -1   -1   -1   -1   -1   -1   -1   -1   -1   -1   -1   -1   -1   -1   -1   -1   -1   -1   -1   -1   -1   -1   -1   -1   -1   -1   -1   -1   -1   -1   -1   -1   -1   -1   -1   -1   -1    0   29   18   31   33   12    0   24   24   10   18    0   21   25    0
   -1   -1   -1   -1   -1   -1   -1   -1   -1   -1   -1   -1   -1   -1   -1   -1   -1   -1   -1   -1   -1   -1   -1   -1   -1   -1   -1   -1   -1   -1   -1   -1   -1   -1   -1   -1   -1   23   23   12   25   25   16   23   12   12   21   21   21    0   15    0
   -1   -1   -1   -1   -1   -1   -1   -1   -1   -1   -1   -1   -1   -1   -1   -1   -1   -1   -1   -1   -1   -1   -1   -1   -1   -1   -1   -1   -1   -1   -1   -1   -1   -1   -1   -1   -1   25   16   20   23   23   23   25   12   11   24   24   12   16    0    0
   -1   -1   -1   -1   -1   -1   -1   -1   -1   -1   -1   -1   -1   -1   -1   -1   -1   -1   -1   -1   -1   -1   -1   -1   -1   -1   -1   -1   -1   -1   -1   -1   -1   -1   -1   -1   -1   -1   -1   -1   -1   -1   -1   -1   -1   -1   -1   -1   -1   -1   -1    0
